
===== New CPLEX run =====
Instance: /home/yorig/tuner/mpils-tests/instances/miplib/easy/supportcase33.mps
Config: /scratch/yorig/mpils-results-grid-seconds-5-watchdog-mip-start/easy/8proc/seed-4/10_supportcase33_seed-4_20260504_032501/expansion/config_param_CPXPARAM_Preprocessing_Symmetry_4_iter_2.prm
========================

Selected objective sense:  MINIMIZE
Selected objective  name:  obj
Selected RHS        name:  rhs
Selected bound      name:  bnd
Wall watchdog: enabled factor=1 grace=1 limit=6 seconds
Version identifier: 22.1.2.0 | 2024-11-26 | 0edbb82fd
CPXPARAM_Threads                                 8
CPXPARAM_Parallel                                1
CPXPARAM_MIP_Cuts_Cliques                        3
CPXPARAM_MIP_Cuts_Covers                         2
CPXPARAM_MIP_Cuts_Implied                        -1
CPXPARAM_MIP_Cuts_GUBCovers                      -1
CPXPARAM_MIP_Limits_GomoryCand                   800
CPXPARAM_MIP_Cuts_Gomory                         2
CPXPARAM_MIP_Cuts_PathCut                        -1
CPXPARAM_MIP_Cuts_MIRCut                         2
CPXPARAM_MIP_Cuts_Disjunctive                    3
CPXPARAM_Emphasis_MIP                            4
CPXPARAM_Preprocessing_Symmetry                  4
CPXPARAM_TimeLimit                               5
Found incumbent of value 0.000000 after 0.00 sec. (2.20 ticks)
Tried aggregator 2 times.
MIP Presolve eliminated 17556 rows and 13423 columns.
MIP Presolve modified 14568 coefficients.
Aggregator did 11 substitutions.
Reduced MIP has 2922 rows, 6763 columns, and 53605 nonzeros.
Reduced MIP has 6683 binaries, 80 generals, 0 SOSs, and 0 indicators.
Presolve time = 0.09 sec. (158.17 ticks)
Probing fixed 667 vars, tightened 0 bounds.
Probing changed sense of 39 constraints.
Probing time = 0.17 sec. (249.39 ticks)
Detecting symmetries...
Tried aggregator 2 times.
Detecting symmetries...
MIP Presolve eliminated 639 rows and 667 columns.
MIP Presolve modified 197 coefficients.
Aggregator did 7 substitutions.
Reduced MIP has 2276 rows, 6089 columns, and 46722 nonzeros.
Reduced MIP has 6009 binaries, 80 generals, 0 SOSs, and 0 indicators.
Presolve time = 0.03 sec. (37.79 ticks)
Probing fixed 1 vars, tightened 0 bounds.
Probing time = 0.03 sec. (37.88 ticks)
Clique table members: 25145.
MIP emphasis: hidden feasible solutions.
MIP search method: dynamic search.
Parallel mode: deterministic, using up to 8 threads.
Root relaxation solution time = 0.06 sec. (117.15 ticks)

        Nodes                                         Cuts/
   Node  Left     Objective  IInf  Best Integer    Best Bound    ItCnt     Gap

*     0+    0                            0.0000    -1075.0000              --- 
      0     0     -462.8425   108        0.0000     -462.8425     1467     --- 
*     0+    0                         -155.0000     -462.8425           198.61%
      0     0     -442.5000   138     -155.0000     Cuts: 173     2013  185.48%
      0     0     -440.0000   115     -155.0000     Cuts: 171     2355  183.87%
*     0+    0                         -215.0000     -440.0000           104.65%
      0     0     -440.0000    87     -215.0000      Cuts: 39     2611  104.65%
*     0+    0                         -235.0000     -440.0000            87.23%
      0     0  -1.00000e+75     0     -235.0000     -440.0000     2611   87.23%
      0     0     -425.0000   104     -235.0000      Cuts: 33     2853   80.85%
*     0+    0                         -260.0000     -425.0000            63.46%
      0     0     -425.0000   107     -260.0000     Cuts: 126     3250   63.46%
Detecting symmetries...
      0     0     -425.0000    79     -260.0000      Cuts: 61     3352   63.46%
*     0+    0                         -285.0000     -425.0000            49.12%
      0     0  -1.00000e+75     0     -285.0000     -425.0000     3352   49.12%
      0     0     -425.0000    80     -285.0000      Cuts: 86     3767   49.12%
Detecting symmetries...
      0     2     -424.4677    98     -285.0000     -425.0000     3767   49.12%
Elapsed time = 2.52 sec. (3602.89 ticks, tree = 0.02 MB, solutions = 5)
*    39+    7                         -310.0000     -420.0000            35.48%
    122    66     -380.6492    68     -310.0000     -418.3755     9881   34.96%
    266   152     -332.4038    98     -310.0000     -418.3755    20456   34.96%
*   374   218      integral     0     -315.0000     -418.3755    32132   32.82%
    386   219     -325.0000    35     -315.0000     -417.3626    30186   32.50%
    449   220     -380.0000    39     -315.0000     -417.3626    35207   32.50%
    701   378    infeasible           -315.0000     -405.0000    45758   28.57%
*   715   361      integral     0     -340.0000     -405.0000    44891   19.12%
    971   386     -349.9774    65     -340.0000     -405.0000    54860   19.12%
   1206   541     -365.0000    49     -340.0000     -405.0000    65888   19.12%
   1351   612     -385.5448    70     -340.0000     -405.0000    72065   19.12%
   2358   843    infeasible           -340.0000     -400.8844   110217   17.91%
Elapsed time = 4.38 sec. (6502.52 ticks, tree = 12.26 MB, solutions = 9)
   3400   982        cutoff           -340.0000     -379.2624   144206   11.55%

Clique cuts applied:  5
Cover cuts applied:  67
Mixed integer rounding cuts applied:  286
Zero-half cuts applied:  9
Gomory fractional cuts applied:  15
Disjunctive cuts applied:  2
Cone linearizations applied:  0

Root node processing (before b&c):
  Real time             =    2.48 sec. (3574.55 ticks)
Parallel b&c, 8 threads:
  Real time             =    2.52 sec. (3909.88 ticks)
  Sync time (average)   =    0.51 sec.
  Wait time (average)   =    0.00 sec.
                          ------------
Total (root+branch&cut) =    5.01 sec. (7484.43 ticks)
Gap: 9.45%
Upper bound: -340
Lower bound: -372.143
Termination status: Normal
End of CPLEX run. Time: 5.01045 seconds

===== New CPLEX run =====
Instance: /home/yorig/tuner/mpils-tests/instances/miplib/easy/supportcase33.mps
Config: /scratch/yorig/mpils-results-grid-seconds-5-watchdog-mip-start/easy/8proc/seed-4/10_supportcase33_seed-4_20260504_032501/expansion/config_param_CPXPARAM_Preprocessing_Symmetry_5_iter_2.prm
========================

Selected objective sense:  MINIMIZE
Selected objective  name:  obj
Selected RHS        name:  rhs
Selected bound      name:  bnd
Wall watchdog: enabled factor=1 grace=1 limit=6 seconds
Version identifier: 22.1.2.0 | 2024-11-26 | 0edbb82fd
CPXPARAM_Threads                                 8
CPXPARAM_Parallel                                1
CPXPARAM_MIP_Cuts_Cliques                        3
CPXPARAM_MIP_Cuts_Covers                         2
CPXPARAM_MIP_Cuts_Implied                        -1
CPXPARAM_MIP_Cuts_GUBCovers                      -1
CPXPARAM_MIP_Limits_GomoryCand                   800
CPXPARAM_MIP_Cuts_Gomory                         2
CPXPARAM_MIP_Cuts_PathCut                        -1
CPXPARAM_MIP_Cuts_MIRCut                         2
CPXPARAM_MIP_Cuts_Disjunctive                    3
CPXPARAM_Emphasis_MIP                            4
CPXPARAM_Preprocessing_Symmetry                  5
CPXPARAM_TimeLimit                               5
Found incumbent of value 0.000000 after 0.00 sec. (2.20 ticks)
Tried aggregator 2 times.
MIP Presolve eliminated 17556 rows and 13423 columns.
MIP Presolve modified 14568 coefficients.
Aggregator did 11 substitutions.
Reduced MIP has 2922 rows, 6763 columns, and 53605 nonzeros.
Reduced MIP has 6683 binaries, 80 generals, 0 SOSs, and 0 indicators.
Presolve time = 0.09 sec. (158.17 ticks)
Probing fixed 667 vars, tightened 0 bounds.
Probing changed sense of 39 constraints.
Probing time = 0.17 sec. (249.39 ticks)
Tried aggregator 2 times.
Detecting symmetries...
MIP Presolve eliminated 639 rows and 667 columns.
MIP Presolve modified 197 coefficients.
Aggregator did 7 substitutions.
Reduced MIP has 2276 rows, 6089 columns, and 46722 nonzeros.
Reduced MIP has 6009 binaries, 80 generals, 0 SOSs, and 0 indicators.
Presolve time = 0.03 sec. (37.79 ticks)
Probing fixed 1 vars, tightened 0 bounds.
Probing time = 0.03 sec. (37.88 ticks)
Clique table members: 25145.
MIP emphasis: hidden feasible solutions.
MIP search method: dynamic search.
Parallel mode: deterministic, using up to 8 threads.
Root relaxation solution time = 0.06 sec. (117.15 ticks)

        Nodes                                         Cuts/
   Node  Left     Objective  IInf  Best Integer    Best Bound    ItCnt     Gap

*     0+    0                            0.0000    -1075.0000              --- 
      0     0     -462.8425   108        0.0000     -462.8425     1467     --- 
*     0+    0                         -155.0000     -462.8425           198.61%
      0     0     -442.5000   138     -155.0000     Cuts: 173     2013  185.48%
      0     0     -440.0000   115     -155.0000     Cuts: 171     2355  183.87%
*     0+    0                         -215.0000     -440.0000           104.65%
      0     0     -440.0000    87     -215.0000      Cuts: 39     2611  104.65%
*     0+    0                         -235.0000     -440.0000            87.23%
      0     0  -1.00000e+75     0     -235.0000     -440.0000     2611   87.23%
      0     0     -425.0000   104     -235.0000      Cuts: 33     2853   80.85%
*     0+    0                         -260.0000     -425.0000            63.46%
      0     0     -425.0000   107     -260.0000     Cuts: 126     3250   63.46%
Detecting symmetries...
      0     0     -425.0000    79     -260.0000      Cuts: 61     3352   63.46%
*     0+    0                         -285.0000     -425.0000            49.12%
      0     0  -1.00000e+75     0     -285.0000     -425.0000     3352   49.12%
      0     0     -425.0000    80     -285.0000      Cuts: 86     3767   49.12%
Detecting symmetries...
      0     2     -424.4677    98     -285.0000     -425.0000     3767   49.12%
Elapsed time = 2.52 sec. (3597.82 ticks, tree = 0.02 MB, solutions = 5)
*    39+    7                         -310.0000     -420.0000            35.48%
    122    66     -380.6492    68     -310.0000     -418.3755     9881   34.96%
    266   152     -332.4038    98     -310.0000     -418.3755    20456   34.96%
*   374   218      integral     0     -315.0000     -418.3755    32132   32.82%
    386   219     -325.0000    35     -315.0000     -417.3626    30186   32.50%
    449   220     -380.0000    39     -315.0000     -417.3626    35207   32.50%
    701   378    infeasible           -315.0000     -405.0000    45758   28.57%
*   715   361      integral     0     -340.0000     -405.0000    44891   19.12%
    971   386     -349.9774    65     -340.0000     -405.0000    54860   19.12%
   1206   541     -365.0000    49     -340.0000     -405.0000    65888   19.12%
   1351   612     -385.5448    70     -340.0000     -405.0000    72065   19.12%
   2358   843    infeasible           -340.0000     -400.8844   110217   17.91%
Elapsed time = 4.38 sec. (6497.45 ticks, tree = 12.26 MB, solutions = 9)
   3400   982        cutoff           -340.0000     -379.2624   144206   11.55%

Clique cuts applied:  5
Cover cuts applied:  67
Mixed integer rounding cuts applied:  286
Zero-half cuts applied:  9
Gomory fractional cuts applied:  15
Disjunctive cuts applied:  2
Cone linearizations applied:  0

Root node processing (before b&c):
  Real time             =    2.48 sec. (3569.49 ticks)
Parallel b&c, 8 threads:
  Real time             =    2.52 sec. (3904.79 ticks)
  Sync time (average)   =    0.51 sec.
  Wait time (average)   =    0.00 sec.
                          ------------
Total (root+branch&cut) =    5.01 sec. (7474.28 ticks)
Gap: 9.45%
Upper bound: -340
Lower bound: -372.143
Termination status: Normal
End of CPLEX run. Time: 5.00986 seconds

===== New CPLEX run =====
Instance: /home/yorig/tuner/mpils-tests/instances/miplib/easy/supportcase33.mps
Config: /scratch/yorig/mpils-results-grid-seconds-5-watchdog-mip-start/easy/8proc/seed-4/10_supportcase33_seed-4_20260504_032501/expansion/config_param_CPXPARAM_Preprocessing_Dual_-1_iter_2.prm
========================

Selected objective sense:  MINIMIZE
Selected objective  name:  obj
Selected RHS        name:  rhs
Selected bound      name:  bnd
Wall watchdog: enabled factor=1 grace=1 limit=6 seconds
Version identifier: 22.1.2.0 | 2024-11-26 | 0edbb82fd
CPXPARAM_Preprocessing_Dual                      -1
CPXPARAM_Threads                                 8
CPXPARAM_Parallel                                1
CPXPARAM_MIP_Cuts_Cliques                        3
CPXPARAM_MIP_Cuts_Covers                         2
CPXPARAM_MIP_Cuts_Implied                        -1
CPXPARAM_MIP_Cuts_GUBCovers                      -1
CPXPARAM_MIP_Limits_GomoryCand                   800
CPXPARAM_MIP_Cuts_Gomory                         2
CPXPARAM_MIP_Cuts_PathCut                        -1
CPXPARAM_MIP_Cuts_MIRCut                         2
CPXPARAM_MIP_Cuts_Disjunctive                    3
CPXPARAM_Emphasis_MIP                            4
CPXPARAM_TimeLimit                               5
Found incumbent of value 0.000000 after 0.00 sec. (2.20 ticks)
Tried aggregator 2 times.
MIP Presolve eliminated 17556 rows and 13423 columns.
MIP Presolve modified 14568 coefficients.
Aggregator did 11 substitutions.
Reduced MIP has 2922 rows, 6763 columns, and 53605 nonzeros.
Reduced MIP has 6683 binaries, 80 generals, 0 SOSs, and 0 indicators.
Presolve time = 0.09 sec. (158.17 ticks)
Probing fixed 667 vars, tightened 0 bounds.
Probing changed sense of 39 constraints.
Probing time = 0.16 sec. (249.39 ticks)
Tried aggregator 2 times.
Detecting symmetries...
MIP Presolve eliminated 639 rows and 667 columns.
MIP Presolve modified 197 coefficients.
Aggregator did 7 substitutions.
Reduced MIP has 2276 rows, 6089 columns, and 46722 nonzeros.
Reduced MIP has 6009 binaries, 80 generals, 0 SOSs, and 0 indicators.
Presolve time = 0.03 sec. (37.79 ticks)
Probing fixed 1 vars, tightened 0 bounds.
Probing time = 0.03 sec. (37.88 ticks)
Clique table members: 25145.
MIP emphasis: hidden feasible solutions.
MIP search method: dynamic search.
Parallel mode: deterministic, using up to 8 threads.
Root relaxation solution time = 0.06 sec. (117.15 ticks)

        Nodes                                         Cuts/
   Node  Left     Objective  IInf  Best Integer    Best Bound    ItCnt     Gap

*     0+    0                            0.0000    -1075.0000              --- 
      0     0     -462.8425   108        0.0000     -462.8425     1467     --- 
*     0+    0                         -155.0000     -462.8425           198.61%
      0     0     -442.5000   138     -155.0000     Cuts: 173     2013  185.48%
      0     0     -440.0000   115     -155.0000     Cuts: 171     2355  183.87%
*     0+    0                         -215.0000     -440.0000           104.65%
      0     0     -440.0000    87     -215.0000      Cuts: 39     2611  104.65%
*     0+    0                         -235.0000     -440.0000            87.23%
      0     0  -1.00000e+75     0     -235.0000     -440.0000     2611   87.23%
      0     0     -425.0000   104     -235.0000      Cuts: 33     2853   80.85%
*     0+    0                         -260.0000     -425.0000            63.46%
      0     0     -425.0000   107     -260.0000     Cuts: 126     3250   63.46%
Detecting symmetries...
      0     0     -425.0000    79     -260.0000      Cuts: 61     3352   63.46%
*     0+    0                         -285.0000     -425.0000            49.12%
      0     0  -1.00000e+75     0     -285.0000     -425.0000     3352   49.12%
      0     0     -425.0000    80     -285.0000      Cuts: 86     3767   49.12%
Detecting symmetries...
      0     2     -424.4677    98     -285.0000     -425.0000     3767   49.12%
Elapsed time = 2.54 sec. (3597.74 ticks, tree = 0.02 MB, solutions = 5)
*    39+    7                         -310.0000     -420.0000            35.48%
    122    66     -380.6492    68     -310.0000     -418.3755     9881   34.96%
    266   152     -332.4038    98     -310.0000     -418.3755    20456   34.96%
*   374   218      integral     0     -315.0000     -418.3755    32132   32.82%
    386   219     -325.0000    35     -315.0000     -417.3626    30186   32.50%
    449   220     -380.0000    39     -315.0000     -417.3626    35207   32.50%
    701   378    infeasible           -315.0000     -405.0000    45758   28.57%
*   715   361      integral     0     -340.0000     -405.0000    44891   19.12%
    971   386     -349.9774    65     -340.0000     -405.0000    54860   19.12%
   1206   541     -365.0000    49     -340.0000     -405.0000    65888   19.12%
   1351   612     -385.5448    70     -340.0000     -405.0000    72065   19.12%
   2358   843    infeasible           -340.0000     -400.8844   110217   17.91%
Elapsed time = 4.38 sec. (6497.37 ticks, tree = 12.26 MB, solutions = 9)
   3400   982        cutoff           -340.0000     -379.2624   144206   11.55%

Clique cuts applied:  5
Cover cuts applied:  67
Mixed integer rounding cuts applied:  286
Zero-half cuts applied:  9
Gomory fractional cuts applied:  15
Disjunctive cuts applied:  2
Cone linearizations applied:  0

Root node processing (before b&c):
  Real time             =    2.50 sec. (3569.40 ticks)
Parallel b&c, 8 threads:
  Real time             =    2.51 sec. (3908.65 ticks)
  Sync time (average)   =    0.50 sec.
  Wait time (average)   =    0.00 sec.
                          ------------
Total (root+branch&cut) =    5.01 sec. (7478.05 ticks)
Gap: 9.45%
Upper bound: -340
Lower bound: -372.143
Termination status: Normal
End of CPLEX run. Time: 5.01034 seconds

===== New CPLEX run =====
Instance: /home/yorig/tuner/mpils-tests/instances/miplib/easy/supportcase33.mps
Config: /scratch/yorig/mpils-results-grid-seconds-5-watchdog-mip-start/easy/8proc/seed-4/10_supportcase33_seed-4_20260504_032501/expansion/config_param_CPXPARAM_Preprocessing_Dual_1_iter_2.prm
========================

Selected objective sense:  MINIMIZE
Selected objective  name:  obj
Selected RHS        name:  rhs
Selected bound      name:  bnd
Wall watchdog: enabled factor=1 grace=1 limit=6 seconds
Version identifier: 22.1.2.0 | 2024-11-26 | 0edbb82fd
CPXPARAM_Preprocessing_Dual                      1
CPXPARAM_Threads                                 8
CPXPARAM_Parallel                                1
CPXPARAM_MIP_Cuts_Cliques                        3
CPXPARAM_MIP_Cuts_Covers                         2
CPXPARAM_MIP_Cuts_Implied                        -1
CPXPARAM_MIP_Cuts_GUBCovers                      -1
CPXPARAM_MIP_Limits_GomoryCand                   800
CPXPARAM_MIP_Cuts_Gomory                         2
CPXPARAM_MIP_Cuts_PathCut                        -1
CPXPARAM_MIP_Cuts_MIRCut                         2
CPXPARAM_MIP_Cuts_Disjunctive                    3
CPXPARAM_Emphasis_MIP                            4
CPXPARAM_TimeLimit                               5
Found incumbent of value 0.000000 after 0.00 sec. (2.20 ticks)
Tried aggregator 2 times.
MIP Presolve eliminated 17556 rows and 13423 columns.
MIP Presolve modified 14568 coefficients.
Aggregator did 11 substitutions.
Reduced MIP has 2922 rows, 6763 columns, and 53605 nonzeros.
Reduced MIP has 6683 binaries, 80 generals, 0 SOSs, and 0 indicators.
Presolve time = 0.09 sec. (158.17 ticks)
Probing fixed 667 vars, tightened 0 bounds.
Probing changed sense of 39 constraints.
Probing time = 0.17 sec. (249.39 ticks)
Tried aggregator 2 times.
Detecting symmetries...
MIP Presolve eliminated 639 rows and 667 columns.
MIP Presolve modified 197 coefficients.
Aggregator did 7 substitutions.
Reduced MIP has 2276 rows, 6089 columns, and 46722 nonzeros.
Reduced MIP has 6009 binaries, 80 generals, 0 SOSs, and 0 indicators.
Presolve time = 0.03 sec. (37.79 ticks)
Probing fixed 1 vars, tightened 0 bounds.
Probing time = 0.03 sec. (37.88 ticks)
Clique table members: 25145.
MIP emphasis: hidden feasible solutions.
MIP search method: dynamic search.
Parallel mode: deterministic, using up to 8 threads.
Root relaxation solution time = 0.27 sec. (297.53 ticks)

        Nodes                                         Cuts/
   Node  Left     Objective  IInf  Best Integer    Best Bound    ItCnt     Gap

*     0+    0                            0.0000    -1075.0000              --- 
      0     0     -462.8425   132        0.0000     -462.8425     1194     --- 
*     0+    0                          -85.0000     -462.8425           444.52%
      0     0     -451.2115   126      -85.0000     Cuts: 133     1582  430.84%
*     0+    0                         -170.0000     -451.2115           165.42%
      0     0     -440.0000    99     -170.0000     Cuts: 120     1943  158.82%
*     0+    0                         -180.0000     -440.0000           144.44%
      0     0     -440.0000   106     -180.0000      Cuts: 70     2338  144.44%
      0     0     -440.0000    92     -180.0000      Cuts: 40     2504  144.44%
      0     0     -440.0000   103     -180.0000      Cuts: 34     2868  144.44%
Detecting symmetries...
*     0+    0                         -190.0000     -440.0000           131.58%
*     0+    0                         -215.0000     -440.0000           104.65%
      0     0  -1.00000e+75     0     -215.0000     -440.0000     2868  104.65%
Detecting symmetries...
      0     2     -440.0000    67     -215.0000     -440.0000     2868  104.65%
Elapsed time = 2.08 sec. (2777.86 ticks, tree = 0.02 MB, solutions = 5)
*    51+    6                         -225.0000     -440.0000            95.56%
*    54+    3                         -260.0000     -440.0000            69.23%
     76    32     -405.0000    71     -260.0000     -440.0000     6630   69.23%
    238   109     -405.0000    61     -260.0000     -440.0000    15042   69.23%
    429   233     -379.1156    52     -260.0000     -440.0000    25132   69.23%
    465   261     -397.5000    65     -260.0000     -440.0000    29312   69.23%
    653   324     -340.0000    38     -260.0000     -440.0000    33701   69.23%
*   837   468      integral     0     -310.0000     -440.0000    40464   41.94%
   1097   568     -405.0000    72     -310.0000     -431.2044    52433   39.10%
   1289   688    infeasible           -310.0000     -425.0000    61565   37.10%
   1481   797     -330.0000    47     -310.0000     -425.0000    72172   37.10%
   2095  1208     -336.6667    76     -310.0000     -422.0370   102961   36.14%
Elapsed time = 3.99 sec. (5787.09 ticks, tree = 21.63 MB, solutions = 10)
   2802  1684     -335.0000    19     -310.0000     -415.6780   144350   34.09%

Clique cuts applied:  10
Cover cuts applied:  66
Mixed integer rounding cuts applied:  103
Zero-half cuts applied:  8
Gomory fractional cuts applied:  7
Disjunctive cuts applied:  1
Cone linearizations applied:  0

Root node processing (before b&c):
  Real time             =    2.05 sec. (2747.77 ticks)
Parallel b&c, 8 threads:
  Real time             =    2.96 sec. (4690.33 ticks)
  Sync time (average)   =    0.62 sec.
  Wait time (average)   =    0.00 sec.
                          ------------
Total (root+branch&cut) =    5.01 sec. (7438.11 ticks)
Gap: 30.65%
Upper bound: -310
Lower bound: -405
Termination status: Normal
End of CPLEX run. Time: 5.00978 seconds

===== New CPLEX run =====
Instance: /home/yorig/tuner/mpils-tests/instances/miplib/easy/supportcase33.mps
Config: /scratch/yorig/mpils-results-grid-seconds-5-watchdog-mip-start/easy/8proc/seed-4/10_supportcase33_seed-4_20260504_032501/expansion/config_param_CPXPARAM_MIP_Strategy_LBHeur_1_iter_2.prm
========================

Selected objective sense:  MINIMIZE
Selected objective  name:  obj
Selected RHS        name:  rhs
Selected bound      name:  bnd
Wall watchdog: enabled factor=1 grace=1 limit=6 seconds
Version identifier: 22.1.2.0 | 2024-11-26 | 0edbb82fd
CPXPARAM_Threads                                 8
CPXPARAM_Parallel                                1
CPXPARAM_MIP_Cuts_Cliques                        3
CPXPARAM_MIP_Cuts_Covers                         2
CPXPARAM_MIP_Cuts_Implied                        -1
CPXPARAM_MIP_Cuts_GUBCovers                      -1
CPXPARAM_MIP_Limits_GomoryCand                   800
CPXPARAM_MIP_Cuts_Gomory                         2
CPXPARAM_MIP_Cuts_PathCut                        -1
CPXPARAM_MIP_Cuts_MIRCut                         2
CPXPARAM_MIP_Cuts_Disjunctive                    3
CPXPARAM_Emphasis_MIP                            4
CPXPARAM_MIP_Strategy_LBHeur                     1
CPXPARAM_TimeLimit                               5
Found incumbent of value 0.000000 after 0.00 sec. (2.20 ticks)
Tried aggregator 2 times.
MIP Presolve eliminated 17556 rows and 13423 columns.
MIP Presolve modified 14568 coefficients.
Aggregator did 11 substitutions.
Reduced MIP has 2922 rows, 6763 columns, and 53605 nonzeros.
Reduced MIP has 6683 binaries, 80 generals, 0 SOSs, and 0 indicators.
Presolve time = 0.09 sec. (158.17 ticks)
Probing fixed 667 vars, tightened 0 bounds.
Probing changed sense of 39 constraints.
Probing time = 0.17 sec. (249.39 ticks)
Tried aggregator 2 times.
Detecting symmetries...
MIP Presolve eliminated 639 rows and 667 columns.
MIP Presolve modified 197 coefficients.
Aggregator did 7 substitutions.
Reduced MIP has 2276 rows, 6089 columns, and 46722 nonzeros.
Reduced MIP has 6009 binaries, 80 generals, 0 SOSs, and 0 indicators.
Presolve time = 0.03 sec. (37.79 ticks)
Probing fixed 1 vars, tightened 0 bounds.
Probing time = 0.03 sec. (37.88 ticks)
Clique table members: 25145.
MIP emphasis: hidden feasible solutions.
MIP search method: dynamic search.
Parallel mode: deterministic, using up to 8 threads.
Root relaxation solution time = 0.06 sec. (117.15 ticks)

        Nodes                                         Cuts/
   Node  Left     Objective  IInf  Best Integer    Best Bound    ItCnt     Gap

*     0+    0                            0.0000    -1075.0000              --- 
      0     0     -462.8425   108        0.0000     -462.8425     1467     --- 
*     0+    0                         -155.0000     -462.8425           198.61%
      0     0     -442.5000   138     -155.0000     Cuts: 173     2013  185.48%
      0     0     -440.0000   115     -155.0000     Cuts: 171     2355  183.87%
*     0+    0                         -215.0000     -440.0000           104.65%
      0     0     -440.0000    87     -215.0000      Cuts: 39     2611  104.65%
*     0+    0                         -235.0000     -440.0000            87.23%
      0     0  -1.00000e+75     0     -235.0000     -440.0000     2611   87.23%
      0     0     -425.0000   104     -235.0000      Cuts: 33     2853   80.85%
*     0+    0                         -260.0000     -425.0000            63.46%
      0     0     -425.0000   107     -260.0000     Cuts: 126     3250   63.46%
Detecting symmetries...
      0     0     -425.0000    79     -260.0000      Cuts: 61     3352   63.46%
*     0+    0                         -285.0000     -425.0000            49.12%
      0     0  -1.00000e+75     0     -285.0000     -425.0000     3352   49.12%
      0     0     -425.0000    80     -285.0000      Cuts: 86     3767   49.12%
Detecting symmetries...
      0     2     -424.4677    98     -285.0000     -425.0000     3767   49.12%
Elapsed time = 3.38 sec. (4876.38 ticks, tree = 0.02 MB, solutions = 5)
*    39+    7                         -310.0000     -420.0000            35.48%
    122    66     -380.6492    68     -310.0000     -418.3755     9881   34.96%
    266   152     -332.4038    98     -310.0000     -418.3755    20456   34.96%
*   374   218      integral     0     -315.0000     -418.3755    32132   32.82%
    386   219     -325.0000    35     -315.0000     -417.3626    30186   32.50%
    449   220     -380.0000    39     -315.0000     -417.3626    35207   32.50%
    701   378    infeasible           -315.0000     -405.0000    45758   28.57%
*   715   361      integral     0     -340.0000     -405.0000    44891   19.12%
    971   386     -349.9774    65     -340.0000     -405.0000    54860   19.12%
   1206   541     -365.0000    49     -340.0000     -405.0000    65888   19.12%
   1351   612     -385.5448    70     -340.0000     -405.0000    72065   19.12%

Clique cuts applied:  5
Cover cuts applied:  47
Mixed integer rounding cuts applied:  186
Zero-half cuts applied:  8
Gomory fractional cuts applied:  12
Disjunctive cuts applied:  2
Cone linearizations applied:  0

Root node processing (before b&c):
  Real time             =    3.34 sec. (4848.04 ticks)
Parallel b&c, 8 threads:
  Real time             =    1.67 sec. (2599.57 ticks)
  Sync time (average)   =    0.36 sec.
  Wait time (average)   =    0.00 sec.
                          ------------
Total (root+branch&cut) =    5.01 sec. (7447.61 ticks)
Gap: 19.12%
Upper bound: -340
Lower bound: -405
Termination status: Normal
End of CPLEX run. Time: 5.01573 seconds
